Version identifier: 12.10.0.0 | 2019-11-26 | 843d4de
CPXPARAM_LPMethod                                4
CPXPARAM_Threads                                 1
CPXPARAM_SolutionType                            2
CPXPARAM_TimeLimit                               10000
Tried aggregator 1 time.
LP Presolve eliminated 108 rows and 2084 columns.
Reduced LP has 4176 rows, 1090526 columns, and 11174639 nonzeros.
Presolve time = 7.77 sec. (2424.10 ticks)
Parallel mode: none, using 1 thread for barrier
Number of nonzeros in lower triangle of A*A' = 1066685
Using Nested Dissection ordering
Total time for automatic ordering = 12.86 sec. (5296.18 ticks)
Summary statistics for Cholesky factor:
  Rows in Factor            = 4176
  Integer space required    = 121699
  Total non-zeros in factor = 5504046
  Total FP ops to factor    = 10654421472
 Itn      Primal Obj        Dual Obj  Prim Inf Upper Inf  Dual Inf Inf Ratio
   0   2.1150480e+07   2.0000000e+01  1.12e+08  0.00e+00  7.01e+04  1.00e+00
   1   1.2286632e+06   7.9976878e+01  6.49e+06  0.00e+00  2.00e+04  1.36e+00
   2   1.4445983e+05   4.3332342e+02  7.61e+05  0.00e+00  2.73e+03  6.24e+01
   3   2.2440173e+04   6.9616256e+02  1.15e+05  0.00e+00  4.65e+02  9.37e+01
   4   1.2984746e+04   8.6718496e+02  6.39e+04  0.00e+00  2.67e+02  1.56e+02
   5   5.5225464e+03   9.4874675e+02  2.39e+04  0.00e+00  1.61e+02  2.58e+02
   6   3.4047087e+03   9.8640131e+02  1.25e+04  0.00e+00  1.18e+02  3.59e+02
   7   2.3868381e+03   1.0108756e+03  7.01e+03  0.00e+00  8.77e+01  5.06e+02
   8   1.7367947e+03   1.0254531e+03  3.52e+03  0.00e+00  6.98e+01  6.62e+02
   9   1.4677727e+03   1.0360651e+03  2.09e+03  0.00e+00  5.42e+01  9.03e+02
  10   1.3038668e+03   1.0454556e+03  1.24e+03  0.00e+00  3.70e+01  1.47e+03
  11   1.2008744e+03   1.0495549e+03  7.18e+02  0.00e+00  2.55e+01  2.38e+03
  12   1.1480508e+03   1.0515414e+03  4.57e+02  0.00e+00  1.76e+01  3.86e+03
  13   1.1007903e+03   1.0527565e+03  2.22e+02  0.00e+00  1.30e+01  5.67e+03
  14   1.0831201e+03   1.0533105e+03  1.36e+02  0.00e+00  9.56e+00  8.55e+03
  15   1.0726885e+03   1.0537272e+03  8.69e+01  0.00e+00  5.79e+00  1.72e+04
  16   1.0618404e+03   1.0539349e+03  3.53e+01  0.00e+00  4.09e+00  2.70e+04
  17   1.0576715e+03   1.0540169e+03  1.62e+01  0.00e+00  2.44e+00  5.64e+04
  18   1.0557536e+03   1.0540458e+03  7.51e+00  0.00e+00  1.51e+00  1.10e+05
  19   1.0546621e+03   1.0540646e+03  2.63e+00  0.00e+00  4.33e-01  1.46e+06
  20   1.0542897e+03   1.0540586e+03  1.02e+00  0.00e+00  1.53e-01  5.89e+06
  21   1.0542581e+03   1.0540571e+03  8.80e-01  0.00e+00  9.48e-02  9.98e+06
  22   1.0541249e+03   1.0540551e+03  3.04e-01  0.00e+00  2.37e-02  3.48e+07
  23   1.0540655e+03   1.0540546e+03  4.79e-02  0.00e+00  3.73e-03  1.60e+08
  24   1.0540546e+03   1.0540545e+03  3.50e-04  0.00e+00  3.28e-05  1.82e+10
  25   1.0540545e+03   1.0540545e+03  1.66e-07  0.00e+00  9.56e-09  7.57e+13
Barrier time = 72.16 sec. (76014.19 ticks)

Total time on 1 threads = 72.16 sec. (76014.19 ticks)
Solver name: CPLEX
Solve time: 72.225824532
Termination status: OPTIMAL
Result count: 1
Primal status: FEASIBLE_POINT
Dual status: FEASIBLE_POINT
